n_work_sheets = 3;
m_activities = 9;
horizon = 42;
l_roads = 5;
east = [1,1,1];
last = [40,40,40];
precedence = [{},{},{2}];
duration = [3, 3, 3];
activities_to_roads = [1,4,4,2,3,2,3,2,1];
pertubation_cost =
 [| 39,39,39,39,39,39,39,39,39,39,39,39,39,39,39,39,39,39,39,39,39,39,39,39,39,39,39,39,39,39,39,39,39,39,39,39,39,39,39,39,39,39,
  | 31,31,31,31,31,31,31,31,31,31,31,31,31,31,31,31,31,31,31,31,31,31,31,31,31,31,31,31,31,31,31,31,31,31,31,31,31,31,31,31,31,31,
  | 24,24,24,24,24,24,24,24,24,24,24,24,24,24,24,24,24,24,24,24,24,24,24,24,24,24,24,24,24,24,24,24,24,24,24,24,24,24,24,24,24,24,
  | 23,23,23,23,23,23,23,23,23,23,23,23,23,23,23,23,23,23,23,23,23,23,23,23,23,23,23,23,23,23,23,23,23,23,23,23,23,23,23,23,23,23,
  | 25,25,25,25,25,25,25,25,25,25,25,25,25,25,25,25,25,25,25,25,25,25,25,25,25,25,25,25,25,25,25,25,25,25,25,25,25,25,25,25,25,25 |];
sheet_to_first_act = [1, 4, 7];
act_to_sheet = [1, 1, 1, 2, 2, 2, 3, 3, 3];